677 15
3 3 3 3 3 3 3 3 3 3 3 3 3 3 3
0  0 0 0 0 0 0 0 0 0 0 0 0 0 0 0  45 2 17 32 47 62 77 92 107 122 137 152 167 182 197 212 227 242 257 272 287 302 317 332 347 362 377 392 407 422 437 452 467 482 497 512 527 542 557 572 587 602 617 632 647 662
21  0 0 0 0 1 0 0 0 0 0 0 0 0 0 0  1 3
55  0 0 0 1 0 0 0 0 0 0 0 0 0 0 0  1 4
71  0 0 0 0 0 0 1 0 0 0 0 0 0 0 0  1 5
98  0 0 0 0 0 0 0 0 0 0 0 0 0 0 1  1 6
12  0 0 0 0 0 0 0 0 0 0 1 0 0 0 0  1 7
34  0 0 1 0 0 0 0 0 0 0 0 0 0 0 0  1 8
16  0 0 0 0 0 0 0 0 0 1 0 0 0 0 0  1 9
21  0 1 0 0 0 0 0 0 0 0 0 0 0 0 0  1 10
53  1 0 0 0 0 0 0 0 0 0 0 0 0 0 0  1 11
26  0 0 0 0 0 0 0 1 0 0 0 0 0 0 0  1 12
52  0 0 0 0 0 0 0 0 1 0 0 0 0 0 0  1 13
95  0 0 0 0 0 1 0 0 0 0 0 0 0 0 0  1 14
31  0 0 0 0 0 0 0 0 0 0 0 0 1 0 0  1 15
42  0 0 0 0 0 0 0 0 0 0 0 1 0 0 0  1 16
39  0 0 0 0 0 0 0 0 0 0 0 0 0 1 0  1 677
54  0 0 0 0 0 0 0 0 0 0 0 1 0 0 0  1 18
83  0 0 0 0 1 0 0 0 0 0 0 0 0 0 0  1 19
77  0 1 0 0 0 0 0 0 0 0 0 0 0 0 0  1 20
64  0 0 0 0 0 0 0 1 0 0 0 0 0 0 0  1 21
34  0 0 0 0 0 0 0 0 1 0 0 0 0 0 0  1 22
79  0 0 0 0 0 0 0 0 0 0 0 0 0 0 1  1 23
43  0 0 0 0 0 0 0 0 0 0 0 0 1 0 0  1 24
55  1 0 0 0 0 0 0 0 0 0 0 0 0 0 0  1 25
77  0 0 0 1 0 0 0 0 0 0 0 0 0 0 0  1 26
19  0 0 0 0 0 0 1 0 0 0 0 0 0 0 0  1 27
37  0 0 0 0 0 0 0 0 0 1 0 0 0 0 0  1 28
79  0 0 0 0 0 1 0 0 0 0 0 0 0 0 0  1 29
92  0 0 0 0 0 0 0 0 0 0 1 0 0 0 0  1 30
62  0 0 0 0 0 0 0 0 0 0 0 0 0 1 0  1 31
66  0 0 1 0 0 0 0 0 0 0 0 0 0 0 0  1 677
83  0 0 0 0 0 0 0 0 0 1 0 0 0 0 0  1 33
77  0 0 0 0 0 1 0 0 0 0 0 0 0 0 0  1 34
87  0 0 1 0 0 0 0 0 0 0 0 0 0 0 0  1 35
38  0 0 0 0 0 0 0 1 0 0 0 0 0 0 0  1 36
60  0 0 0 0 1 0 0 0 0 0 0 0 0 0 0  1 37
98  0 0 0 0 0 0 0 0 0 0 0 0 1 0 0  1 38
93  1 0 0 0 0 0 0 0 0 0 0 0 0 0 0  1 39
17  0 0 0 0 0 0 0 0 0 0 0 0 0 1 0  1 40
41  0 0 0 0 0 0 1 0 0 0 0 0 0 0 0  1 41
44  0 0 0 0 0 0 0 0 0 0 1 0 0 0 0  1 42
69  0 0 0 1 0 0 0 0 0 0 0 0 0 0 0  1 43
49  0 0 0 0 0 0 0 0 0 0 0 1 0 0 0  1 44
24  0 0 0 0 0 0 0 0 1 0 0 0 0 0 0  1 45
87  0 1 0 0 0 0 0 0 0 0 0 0 0 0 0  1 46
25  0 0 0 0 0 0 0 0 0 0 0 0 0 0 1  1 677
77  0 0 0 0 0 1 0 0 0 0 0 0 0 0 0  1 48
96  1 0 0 0 0 0 0 0 0 0 0 0 0 0 0  1 49
28  0 0 0 0 0 0 0 0 0 1 0 0 0 0 0  1 50
7  0 0 0 0 0 0 1 0 0 0 0 0 0 0 0  1 51
95  0 0 0 0 1 0 0 0 0 0 0 0 0 0 0  1 52
35  0 0 0 0 0 0 0 0 0 0 0 0 0 1 0  1 53
35  0 0 0 0 0 0 0 1 0 0 0 0 0 0 0  1 54
76  0 0 0 0 0 0 0 0 1 0 0 0 0 0 0  1 55
9  0 0 0 0 0 0 0 0 0 0 0 1 0 0 0  1 56
95  0 0 0 0 0 0 0 0 0 0 0 0 1 0 0  1 57
43  0 0 1 0 0 0 0 0 0 0 0 0 0 0 0  1 58
75  0 1 0 0 0 0 0 0 0 0 0 0 0 0 0  1 59
61  0 0 0 0 0 0 0 0 0 0 1 0 0 0 0  1 60
10  0 0 0 0 0 0 0 0 0 0 0 0 0 0 1  1 61
79  0 0 0 1 0 0 0 0 0 0 0 0 0 0 0  1 677
87  0 0 0 0 0 0 0 0 0 0 1 0 0 0 0  1 63
28  0 0 0 0 1 0 0 0 0 0 0 0 0 0 0  1 64
50  0 0 0 0 0 0 0 0 1 0 0 0 0 0 0  1 65
59  0 0 1 0 0 0 0 0 0 0 0 0 0 0 0  1 66
46  1 0 0 0 0 0 0 0 0 0 0 0 0 0 0  1 67
45  0 0 0 0 0 0 0 0 0 0 0 1 0 0 0  1 68
9  0 0 0 0 0 0 0 0 0 0 0 0 0 0 1  1 69
43  0 0 0 0 0 0 0 0 0 1 0 0 0 0 0  1 70
52  0 0 0 0 0 0 1 0 0 0 0 0 0 0 0  1 71
27  0 0 0 0 0 0 0 1 0 0 0 0 0 0 0  1 72
91  0 1 0 0 0 0 0 0 0 0 0 0 0 0 0  1 73
41  0 0 0 0 0 0 0 0 0 0 0 0 0 1 0  1 74
16  0 0 0 1 0 0 0 0 0 0 0 0 0 0 0  1 75
59  0 0 0 0 0 1 0 0 0 0 0 0 0 0 0  1 76
39  0 0 0 0 0 0 0 0 0 0 0 0 1 0 0  1 677
20  1 0 0 0 0 0 0 0 0 0 0 0 0 0 0  1 78
71  0 0 1 0 0 0 0 0 0 0 0 0 0 0 0  1 79
78  0 0 0 0 1 0 0 0 0 0 0 0 0 0 0  1 80
66  0 0 0 0 0 0 0 0 0 0 0 0 0 1 0  1 81
14  0 0 0 1 0 0 0 0 0 0 0 0 0 0 0  1 82
8  0 0 0 0 0 0 0 0 0 0 0 0 1 0 0  1 83
42  0 0 0 0 0 0 0 0 0 0 0 0 0 0 1  1 84
28  0 0 0 0 0 0 1 0 0 0 0 0 0 0 0  1 85
54  0 1 0 0 0 0 0 0 0 0 0 0 0 0 0  1 86
33  0 0 0 0 0 0 0 0 0 1 0 0 0 0 0  1 87
89  0 0 0 0 0 0 0 0 0 0 0 1 0 0 0  1 88
26  0 0 0 0 0 0 0 0 1 0 0 0 0 0 0  1 89
37  0 0 0 0 0 0 0 1 0 0 0 0 0 0 0  1 90
33  0 0 0 0 0 0 0 0 0 0 1 0 0 0 0  1 91
43  0 0 0 0 0 1 0 0 0 0 0 0 0 0 0  1 677
69  0 0 0 0 0 0 0 0 1 0 0 0 0 0 0  1 93
96  0 0 0 0 1 0 0 0 0 0 0 0 0 0 0  1 94
17  0 0 0 0 0 0 0 0 0 0 0 0 1 0 0  1 95
69  1 0 0 0 0 0 0 0 0 0 0 0 0 0 0  1 96
45  0 0 0 0 0 0 0 1 0 0 0 0 0 0 0  1 97
31  0 0 0 0 0 0 0 0 0 0 0 1 0 0 0  1 98
78  0 0 0 0 0 0 1 0 0 0 0 0 0 0 0  1 99
20  0 0 0 0 0 0 0 0 0 0 1 0 0 0 0  1 100
27  0 0 0 1 0 0 0 0 0 0 0 0 0 0 0  1 101
87  0 0 0 0 0 0 0 0 0 0 0 0 0 1 0  1 102
74  0 1 0 0 0 0 0 0 0 0 0 0 0 0 0  1 103
84  0 0 0 0 0 1 0 0 0 0 0 0 0 0 0  1 104
76  0 0 0 0 0 0 0 0 0 0 0 0 0 0 1  1 105
94  0 0 1 0 0 0 0 0 0 0 0 0 0 0 0  1 106
81  0 0 0 0 0 0 0 0 0 1 0 0 0 0 0  1 677
58  0 0 0 0 1 0 0 0 0 0 0 0 0 0 0  1 108
90  0 0 0 0 0 0 0 0 0 0 0 0 0 1 0  1 109
76  0 0 0 0 0 0 0 0 0 0 0 1 0 0 0  1 110
81  0 0 0 1 0 0 0 0 0 0 0 0 0 0 0  1 111
23  0 0 0 0 0 0 0 1 0 0 0 0 0 0 0  1 112
28  0 0 0 0 0 0 0 0 0 1 0 0 0 0 0  1 113
18  0 1 0 0 0 0 0 0 0 0 0 0 0 0 0  1 114
32  0 0 1 0 0 0 0 0 0 0 0 0 0 0 0  1 115
86  0 0 0 0 0 0 0 0 0 0 0 0 1 0 0  1 116
99  0 0 0 0 0 0 0 0 1 0 0 0 0 0 0  1 117
97  0 0 0 0 0 0 0 0 0 0 0 0 0 0 1  1 118
24  1 0 0 0 0 0 0 0 0 0 0 0 0 0 0  1 119
45  0 0 0 0 0 0 0 0 0 0 1 0 0 0 0  1 120
72  0 0 0 0 0 0 1 0 0 0 0 0 0 0 0  1 121
25  0 0 0 0 0 1 0 0 0 0 0 0 0 0 0  1 677
27  0 0 0 0 0 1 0 0 0 0 0 0 0 0 0  1 123
46  0 1 0 0 0 0 0 0 0 0 0 0 0 0 0  1 124
67  0 0 0 0 0 0 1 0 0 0 0 0 0 0 0  1 125
27  0 0 0 0 0 0 0 0 1 0 0 0 0 0 0  1 126
19  0 0 0 0 0 0 0 0 0 0 0 0 0 1 0  1 127
80  0 0 0 0 0 0 0 0 0 0 1 0 0 0 0  1 128
17  0 0 1 0 0 0 0 0 0 0 0 0 0 0 0  1 129
48  0 0 0 1 0 0 0 0 0 0 0 0 0 0 0  1 130
62  0 0 0 0 0 0 0 1 0 0 0 0 0 0 0  1 131
12  0 0 0 0 0 0 0 0 0 0 0 1 0 0 0  1 132
28  0 0 0 0 0 0 0 0 0 0 0 0 0 0 1  1 133
98  0 0 0 0 1 0 0 0 0 0 0 0 0 0 0  1 134
42  1 0 0 0 0 0 0 0 0 0 0 0 0 0 0  1 135
48  0 0 0 0 0 0 0 0 0 1 0 0 0 0 0  1 136
50  0 0 0 0 0 0 0 0 0 0 0 0 1 0 0  1 677
37  0 0 0 0 0 0 0 0 0 0 0 1 0 0 0  1 138
80  0 0 0 0 0 1 0 0 0 0 0 0 0 0 0  1 139
75  0 0 0 0 1 0 0 0 0 0 0 0 0 0 0  1 140
55  0 0 0 0 0 0 0 0 1 0 0 0 0 0 0  1 141
50  0 0 0 0 0 0 0 1 0 0 0 0 0 0 0  1 142
94  1 0 0 0 0 0 0 0 0 0 0 0 0 0 0  1 143
14  0 0 0 0 0 0 0 0 0 1 0 0 0 0 0  1 144
41  0 0 0 0 0 0 1 0 0 0 0 0 0 0 0  1 145
72  0 0 0 0 0 0 0 0 0 0 0 0 0 0 1  1 146
50  0 0 0 1 0 0 0 0 0 0 0 0 0 0 0  1 147
61  0 0 0 0 0 0 0 0 0 0 1 0 0 0 0  1 148
79  0 0 0 0 0 0 0 0 0 0 0 0 0 1 0  1 149
98  0 0 1 0 0 0 0 0 0 0 0 0 0 0 0  1 150
18  0 0 0 0 0 0 0 0 0 0 0 0 1 0 0  1 151
63  0 1 0 0 0 0 0 0 0 0 0 0 0 0 0  1 677
65  0 0 0 0 0 0 0 1 0 0 0 0 0 0 0  1 153
96  0 0 0 1 0 0 0 0 0 0 0 0 0 0 0  1 154
47  1 0 0 0 0 0 0 0 0 0 0 0 0 0 0  1 155
75  0 0 0 0 1 0 0 0 0 0 0 0 0 0 0  1 156
69  0 0 0 0 0 0 0 0 0 0 0 0 1 0 0  1 157
58  0 0 0 0 0 0 0 0 0 0 0 0 0 0 1  1 158
33  0 0 0 0 0 0 0 0 0 0 1 0 0 0 0  1 159
71  0 1 0 0 0 0 0 0 0 0 0 0 0 0 0  1 160
22  0 0 0 0 0 0 0 0 0 1 0 0 0 0 0  1 161
32  0 0 0 0 0 0 0 0 0 0 0 0 0 1 0  1 162
57  0 0 0 0 0 1 0 0 0 0 0 0 0 0 0  1 163
79  0 0 0 0 0 0 0 0 1 0 0 0 0 0 0  1 164
14  0 0 1 0 0 0 0 0 0 0 0 0 0 0 0  1 165
31  0 0 0 0 0 0 0 0 0 0 0 1 0 0 0  1 166
60  0 0 0 0 0 0 1 0 0 0 0 0 0 0 0  1 677
34  0 1 0 0 0 0 0 0 0 0 0 0 0 0 0  1 168
47  0 0 1 0 0 0 0 0 0 0 0 0 0 0 0  1 169
58  0 0 0 1 0 0 0 0 0 0 0 0 0 0 0  1 170
51  0 0 0 0 0 1 0 0 0 0 0 0 0 0 0  1 171
62  0 0 0 0 1 0 0 0 0 0 0 0 0 0 0  1 172
44  0 0 0 0 0 0 1 0 0 0 0 0 0 0 0  1 173
8  0 0 0 0 0 0 0 0 0 1 0 0 0 0 0  1 174
17  0 0 0 0 0 0 0 1 0 0 0 0 0 0 0  1 175
97  0 0 0 0 0 0 0 0 0 0 1 0 0 0 0  1 176
29  0 0 0 0 0 0 0 0 1 0 0 0 0 0 0  1 177
15  0 0 0 0 0 0 0 0 0 0 0 1 0 0 0  1 178
66  0 0 0 0 0 0 0 0 0 0 0 0 0 1 0  1 179
40  0 0 0 0 0 0 0 0 0 0 0 0 1 0 0  1 180
44  1 0 0 0 0 0 0 0 0 0 0 0 0 0 0  1 181
38  0 0 0 0 0 0 0 0 0 0 0 0 0 0 1  1 677
50  0 0 0 1 0 0 0 0 0 0 0 0 0 0 0  1 183
57  0 0 0 0 0 0 0 1 0 0 0 0 0 0 0  1 184
61  0 0 0 0 0 0 0 0 0 0 0 0 0 1 0  1 185
20  0 0 0 0 0 1 0 0 0 0 0 0 0 0 0  1 186
85  0 0 0 0 0 0 0 0 0 0 0 1 0 0 0  1 187
90  0 0 0 0 0 0 0 0 0 0 0 0 1 0 0  1 188
58  0 0 1 0 0 0 0 0 0 0 0 0 0 0 0  1 189
63  0 0 0 0 1 0 0 0 0 0 0 0 0 0 0  1 190
84  0 0 0 0 0 0 0 0 0 0 1 0 0 0 0  1 191
39  0 1 0 0 0 0 0 0 0 0 0 0 0 0 0  1 192
87  0 0 0 0 0 0 0 0 0 1 0 0 0 0 0  1 193
21  0 0 0 0 0 0 1 0 0 0 0 0 0 0 0  1 194
56  0 0 0 0 0 0 0 0 0 0 0 0 0 0 1  1 195
32  0 0 0 0 0 0 0 0 1 0 0 0 0 0 0  1 196
57  1 0 0 0 0 0 0 0 0 0 0 0 0 0 0  1 677
84  0 0 0 0 0 0 0 0 0 1 0 0 0 0 0  1 198
45  0 0 0 0 0 0 0 1 0 0 0 0 0 0 0  1 199
15  0 0 0 0 0 1 0 0 0 0 0 0 0 0 0  1 200
41  0 0 0 0 0 0 0 0 0 0 0 0 0 0 1  1 201
18  0 0 0 0 0 0 0 0 0 0 1 0 0 0 0  1 202
82  0 0 0 0 1 0 0 0 0 0 0 0 0 0 0  1 203
29  0 0 0 0 0 0 0 0 0 0 0 1 0 0 0  1 204
70  0 0 1 0 0 0 0 0 0 0 0 0 0 0 0  1 205
67  0 1 0 0 0 0 0 0 0 0 0 0 0 0 0  1 206
30  0 0 0 1 0 0 0 0 0 0 0 0 0 0 0  1 207
50  0 0 0 0 0 0 0 0 0 0 0 0 0 1 0  1 208
23  0 0 0 0 0 0 1 0 0 0 0 0 0 0 0  1 209
20  1 0 0 0 0 0 0 0 0 0 0 0 0 0 0  1 210
21  0 0 0 0 0 0 0 0 0 0 0 0 1 0 0  1 211
38  0 0 0 0 0 0 0 0 1 0 0 0 0 0 0  1 677
37  0 0 0 0 0 0 0 0 0 1 0 0 0 0 0  1 213
81  0 0 0 0 0 0 0 0 0 0 1 0 0 0 0  1 214
61  0 0 0 0 0 0 0 0 0 0 0 1 0 0 0  1 215
57  0 0 0 0 0 0 0 0 0 0 0 0 0 0 1  1 216
57  0 0 0 0 0 0 0 0 1 0 0 0 0 0 0  1 217
52  1 0 0 0 0 0 0 0 0 0 0 0 0 0 0  1 218
74  0 0 0 0 0 0 0 1 0 0 0 0 0 0 0  1 219
62  0 0 0 0 0 0 1 0 0 0 0 0 0 0 0  1 220
30  0 0 0 0 0 0 0 0 0 0 0 0 1 0 0  1 221
52  0 1 0 0 0 0 0 0 0 0 0 0 0 0 0  1 222
38  0 0 1 0 0 0 0 0 0 0 0 0 0 0 0  1 223
68  0 0 0 0 0 0 0 0 0 0 0 0 0 1 0  1 224
54  0 0 0 0 1 0 0 0 0 0 0 0 0 0 0  1 225
54  0 0 0 1 0 0 0 0 0 0 0 0 0 0 0  1 226
16  0 0 0 0 0 1 0 0 0 0 0 0 0 0 0  1 677
21  0 0 0 0 1 0 0 0 0 0 0 0 0 0 0  1 228
55  0 0 0 1 0 0 0 0 0 0 0 0 0 0 0  1 229
71  0 0 0 0 0 0 1 0 0 0 0 0 0 0 0  1 230
98  0 0 0 0 0 0 0 0 0 0 0 0 0 0 1  1 231
12  0 0 0 0 0 0 0 0 0 0 1 0 0 0 0  1 232
34  0 0 1 0 0 0 0 0 0 0 0 0 0 0 0  1 233
16  0 0 0 0 0 0 0 0 0 1 0 0 0 0 0  1 234
21  0 1 0 0 0 0 0 0 0 0 0 0 0 0 0  1 235
53  1 0 0 0 0 0 0 0 0 0 0 0 0 0 0  1 236
26  0 0 0 0 0 0 0 1 0 0 0 0 0 0 0  1 237
52  0 0 0 0 0 0 0 0 1 0 0 0 0 0 0  1 238
95  0 0 0 0 0 1 0 0 0 0 0 0 0 0 0  1 239
31  0 0 0 0 0 0 0 0 0 0 0 0 1 0 0  1 240
42  0 0 0 0 0 0 0 0 0 0 0 1 0 0 0  1 241
39  0 0 0 0 0 0 0 0 0 0 0 0 0 1 0  1 677
54  0 0 0 0 0 0 0 0 0 0 0 1 0 0 0  1 243
83  0 0 0 0 1 0 0 0 0 0 0 0 0 0 0  1 244
77  0 1 0 0 0 0 0 0 0 0 0 0 0 0 0  1 245
64  0 0 0 0 0 0 0 1 0 0 0 0 0 0 0  1 246
34  0 0 0 0 0 0 0 0 1 0 0 0 0 0 0  1 247
79  0 0 0 0 0 0 0 0 0 0 0 0 0 0 1  1 248
43  0 0 0 0 0 0 0 0 0 0 0 0 1 0 0  1 249
55  1 0 0 0 0 0 0 0 0 0 0 0 0 0 0  1 250
77  0 0 0 1 0 0 0 0 0 0 0 0 0 0 0  1 251
19  0 0 0 0 0 0 1 0 0 0 0 0 0 0 0  1 252
37  0 0 0 0 0 0 0 0 0 1 0 0 0 0 0  1 253
79  0 0 0 0 0 1 0 0 0 0 0 0 0 0 0  1 254
92  0 0 0 0 0 0 0 0 0 0 1 0 0 0 0  1 255
62  0 0 0 0 0 0 0 0 0 0 0 0 0 1 0  1 256
66  0 0 1 0 0 0 0 0 0 0 0 0 0 0 0  1 677
83  0 0 0 0 0 0 0 0 0 1 0 0 0 0 0  1 258
77  0 0 0 0 0 1 0 0 0 0 0 0 0 0 0  1 259
87  0 0 1 0 0 0 0 0 0 0 0 0 0 0 0  1 260
38  0 0 0 0 0 0 0 1 0 0 0 0 0 0 0  1 261
60  0 0 0 0 1 0 0 0 0 0 0 0 0 0 0  1 262
98  0 0 0 0 0 0 0 0 0 0 0 0 1 0 0  1 263
93  1 0 0 0 0 0 0 0 0 0 0 0 0 0 0  1 264
17  0 0 0 0 0 0 0 0 0 0 0 0 0 1 0  1 265
41  0 0 0 0 0 0 1 0 0 0 0 0 0 0 0  1 266
44  0 0 0 0 0 0 0 0 0 0 1 0 0 0 0  1 267
69  0 0 0 1 0 0 0 0 0 0 0 0 0 0 0  1 268
49  0 0 0 0 0 0 0 0 0 0 0 1 0 0 0  1 269
24  0 0 0 0 0 0 0 0 1 0 0 0 0 0 0  1 270
87  0 1 0 0 0 0 0 0 0 0 0 0 0 0 0  1 271
25  0 0 0 0 0 0 0 0 0 0 0 0 0 0 1  1 677
77  0 0 0 0 0 1 0 0 0 0 0 0 0 0 0  1 273
96  1 0 0 0 0 0 0 0 0 0 0 0 0 0 0  1 274
28  0 0 0 0 0 0 0 0 0 1 0 0 0 0 0  1 275
7  0 0 0 0 0 0 1 0 0 0 0 0 0 0 0  1 276
95  0 0 0 0 1 0 0 0 0 0 0 0 0 0 0  1 277
35  0 0 0 0 0 0 0 0 0 0 0 0 0 1 0  1 278
35  0 0 0 0 0 0 0 1 0 0 0 0 0 0 0  1 279
76  0 0 0 0 0 0 0 0 1 0 0 0 0 0 0  1 280
9  0 0 0 0 0 0 0 0 0 0 0 1 0 0 0  1 281
95  0 0 0 0 0 0 0 0 0 0 0 0 1 0 0  1 282
43  0 0 1 0 0 0 0 0 0 0 0 0 0 0 0  1 283
75  0 1 0 0 0 0 0 0 0 0 0 0 0 0 0  1 284
61  0 0 0 0 0 0 0 0 0 0 1 0 0 0 0  1 285
10  0 0 0 0 0 0 0 0 0 0 0 0 0 0 1  1 286
79  0 0 0 1 0 0 0 0 0 0 0 0 0 0 0  1 677
87  0 0 0 0 0 0 0 0 0 0 1 0 0 0 0  1 288
28  0 0 0 0 1 0 0 0 0 0 0 0 0 0 0  1 289
50  0 0 0 0 0 0 0 0 1 0 0 0 0 0 0  1 290
59  0 0 1 0 0 0 0 0 0 0 0 0 0 0 0  1 291
46  1 0 0 0 0 0 0 0 0 0 0 0 0 0 0  1 292
45  0 0 0 0 0 0 0 0 0 0 0 1 0 0 0  1 293
9  0 0 0 0 0 0 0 0 0 0 0 0 0 0 1  1 294
43  0 0 0 0 0 0 0 0 0 1 0 0 0 0 0  1 295
52  0 0 0 0 0 0 1 0 0 0 0 0 0 0 0  1 296
27  0 0 0 0 0 0 0 1 0 0 0 0 0 0 0  1 297
91  0 1 0 0 0 0 0 0 0 0 0 0 0 0 0  1 298
41  0 0 0 0 0 0 0 0 0 0 0 0 0 1 0  1 299
16  0 0 0 1 0 0 0 0 0 0 0 0 0 0 0  1 300
59  0 0 0 0 0 1 0 0 0 0 0 0 0 0 0  1 301
39  0 0 0 0 0 0 0 0 0 0 0 0 1 0 0  1 677
20  1 0 0 0 0 0 0 0 0 0 0 0 0 0 0  1 303
71  0 0 1 0 0 0 0 0 0 0 0 0 0 0 0  1 304
78  0 0 0 0 1 0 0 0 0 0 0 0 0 0 0  1 305
66  0 0 0 0 0 0 0 0 0 0 0 0 0 1 0  1 306
14  0 0 0 1 0 0 0 0 0 0 0 0 0 0 0  1 307
8  0 0 0 0 0 0 0 0 0 0 0 0 1 0 0  1 308
42  0 0 0 0 0 0 0 0 0 0 0 0 0 0 1  1 309
28  0 0 0 0 0 0 1 0 0 0 0 0 0 0 0  1 310
54  0 1 0 0 0 0 0 0 0 0 0 0 0 0 0  1 311
33  0 0 0 0 0 0 0 0 0 1 0 0 0 0 0  1 312
89  0 0 0 0 0 0 0 0 0 0 0 1 0 0 0  1 313
26  0 0 0 0 0 0 0 0 1 0 0 0 0 0 0  1 314
37  0 0 0 0 0 0 0 1 0 0 0 0 0 0 0  1 315
33  0 0 0 0 0 0 0 0 0 0 1 0 0 0 0  1 316
43  0 0 0 0 0 1 0 0 0 0 0 0 0 0 0  1 677
69  0 0 0 0 0 0 0 0 1 0 0 0 0 0 0  1 318
96  0 0 0 0 1 0 0 0 0 0 0 0 0 0 0  1 319
17  0 0 0 0 0 0 0 0 0 0 0 0 1 0 0  1 320
69  1 0 0 0 0 0 0 0 0 0 0 0 0 0 0  1 321
45  0 0 0 0 0 0 0 1 0 0 0 0 0 0 0  1 322
31  0 0 0 0 0 0 0 0 0 0 0 1 0 0 0  1 323
78  0 0 0 0 0 0 1 0 0 0 0 0 0 0 0  1 324
20  0 0 0 0 0 0 0 0 0 0 1 0 0 0 0  1 325
27  0 0 0 1 0 0 0 0 0 0 0 0 0 0 0  1 326
87  0 0 0 0 0 0 0 0 0 0 0 0 0 1 0  1 327
74  0 1 0 0 0 0 0 0 0 0 0 0 0 0 0  1 328
84  0 0 0 0 0 1 0 0 0 0 0 0 0 0 0  1 329
76  0 0 0 0 0 0 0 0 0 0 0 0 0 0 1  1 330
94  0 0 1 0 0 0 0 0 0 0 0 0 0 0 0  1 331
81  0 0 0 0 0 0 0 0 0 1 0 0 0 0 0  1 677
58  0 0 0 0 1 0 0 0 0 0 0 0 0 0 0  1 333
90  0 0 0 0 0 0 0 0 0 0 0 0 0 1 0  1 334
76  0 0 0 0 0 0 0 0 0 0 0 1 0 0 0  1 335
81  0 0 0 1 0 0 0 0 0 0 0 0 0 0 0  1 336
23  0 0 0 0 0 0 0 1 0 0 0 0 0 0 0  1 337
28  0 0 0 0 0 0 0 0 0 1 0 0 0 0 0  1 338
18  0 1 0 0 0 0 0 0 0 0 0 0 0 0 0  1 339
32  0 0 1 0 0 0 0 0 0 0 0 0 0 0 0  1 340
86  0 0 0 0 0 0 0 0 0 0 0 0 1 0 0  1 341
99  0 0 0 0 0 0 0 0 1 0 0 0 0 0 0  1 342
97  0 0 0 0 0 0 0 0 0 0 0 0 0 0 1  1 343
24  1 0 0 0 0 0 0 0 0 0 0 0 0 0 0  1 344
45  0 0 0 0 0 0 0 0 0 0 1 0 0 0 0  1 345
72  0 0 0 0 0 0 1 0 0 0 0 0 0 0 0  1 346
25  0 0 0 0 0 1 0 0 0 0 0 0 0 0 0  1 677
27  0 0 0 0 0 1 0 0 0 0 0 0 0 0 0  1 348
46  0 1 0 0 0 0 0 0 0 0 0 0 0 0 0  1 349
67  0 0 0 0 0 0 1 0 0 0 0 0 0 0 0  1 350
27  0 0 0 0 0 0 0 0 1 0 0 0 0 0 0  1 351
19  0 0 0 0 0 0 0 0 0 0 0 0 0 1 0  1 352
80  0 0 0 0 0 0 0 0 0 0 1 0 0 0 0  1 353
17  0 0 1 0 0 0 0 0 0 0 0 0 0 0 0  1 354
48  0 0 0 1 0 0 0 0 0 0 0 0 0 0 0  1 355
62  0 0 0 0 0 0 0 1 0 0 0 0 0 0 0  1 356
12  0 0 0 0 0 0 0 0 0 0 0 1 0 0 0  1 357
28  0 0 0 0 0 0 0 0 0 0 0 0 0 0 1  1 358
98  0 0 0 0 1 0 0 0 0 0 0 0 0 0 0  1 359
42  1 0 0 0 0 0 0 0 0 0 0 0 0 0 0  1 360
48  0 0 0 0 0 0 0 0 0 1 0 0 0 0 0  1 361
50  0 0 0 0 0 0 0 0 0 0 0 0 1 0 0  1 677
37  0 0 0 0 0 0 0 0 0 0 0 1 0 0 0  1 363
80  0 0 0 0 0 1 0 0 0 0 0 0 0 0 0  1 364
75  0 0 0 0 1 0 0 0 0 0 0 0 0 0 0  1 365
55  0 0 0 0 0 0 0 0 1 0 0 0 0 0 0  1 366
50  0 0 0 0 0 0 0 1 0 0 0 0 0 0 0  1 367
94  1 0 0 0 0 0 0 0 0 0 0 0 0 0 0  1 368
14  0 0 0 0 0 0 0 0 0 1 0 0 0 0 0  1 369
41  0 0 0 0 0 0 1 0 0 0 0 0 0 0 0  1 370
72  0 0 0 0 0 0 0 0 0 0 0 0 0 0 1  1 371
50  0 0 0 1 0 0 0 0 0 0 0 0 0 0 0  1 372
61  0 0 0 0 0 0 0 0 0 0 1 0 0 0 0  1 373
79  0 0 0 0 0 0 0 0 0 0 0 0 0 1 0  1 374
98  0 0 1 0 0 0 0 0 0 0 0 0 0 0 0  1 375
18  0 0 0 0 0 0 0 0 0 0 0 0 1 0 0  1 376
63  0 1 0 0 0 0 0 0 0 0 0 0 0 0 0  1 677
65  0 0 0 0 0 0 0 1 0 0 0 0 0 0 0  1 378
96  0 0 0 1 0 0 0 0 0 0 0 0 0 0 0  1 379
47  1 0 0 0 0 0 0 0 0 0 0 0 0 0 0  1 380
75  0 0 0 0 1 0 0 0 0 0 0 0 0 0 0  1 381
69  0 0 0 0 0 0 0 0 0 0 0 0 1 0 0  1 382
58  0 0 0 0 0 0 0 0 0 0 0 0 0 0 1  1 383
33  0 0 0 0 0 0 0 0 0 0 1 0 0 0 0  1 384
71  0 1 0 0 0 0 0 0 0 0 0 0 0 0 0  1 385
22  0 0 0 0 0 0 0 0 0 1 0 0 0 0 0  1 386
32  0 0 0 0 0 0 0 0 0 0 0 0 0 1 0  1 387
57  0 0 0 0 0 1 0 0 0 0 0 0 0 0 0  1 388
79  0 0 0 0 0 0 0 0 1 0 0 0 0 0 0  1 389
14  0 0 1 0 0 0 0 0 0 0 0 0 0 0 0  1 390
31  0 0 0 0 0 0 0 0 0 0 0 1 0 0 0  1 391
60  0 0 0 0 0 0 1 0 0 0 0 0 0 0 0  1 677
34  0 1 0 0 0 0 0 0 0 0 0 0 0 0 0  1 393
47  0 0 1 0 0 0 0 0 0 0 0 0 0 0 0  1 394
58  0 0 0 1 0 0 0 0 0 0 0 0 0 0 0  1 395
51  0 0 0 0 0 1 0 0 0 0 0 0 0 0 0  1 396
62  0 0 0 0 1 0 0 0 0 0 0 0 0 0 0  1 397
44  0 0 0 0 0 0 1 0 0 0 0 0 0 0 0  1 398
8  0 0 0 0 0 0 0 0 0 1 0 0 0 0 0  1 399
17  0 0 0 0 0 0 0 1 0 0 0 0 0 0 0  1 400
97  0 0 0 0 0 0 0 0 0 0 1 0 0 0 0  1 401
29  0 0 0 0 0 0 0 0 1 0 0 0 0 0 0  1 402
15  0 0 0 0 0 0 0 0 0 0 0 1 0 0 0  1 403
66  0 0 0 0 0 0 0 0 0 0 0 0 0 1 0  1 404
40  0 0 0 0 0 0 0 0 0 0 0 0 1 0 0  1 405
44  1 0 0 0 0 0 0 0 0 0 0 0 0 0 0  1 406
38  0 0 0 0 0 0 0 0 0 0 0 0 0 0 1  1 677
50  0 0 0 1 0 0 0 0 0 0 0 0 0 0 0  1 408
57  0 0 0 0 0 0 0 1 0 0 0 0 0 0 0  1 409
61  0 0 0 0 0 0 0 0 0 0 0 0 0 1 0  1 410
20  0 0 0 0 0 1 0 0 0 0 0 0 0 0 0  1 411
85  0 0 0 0 0 0 0 0 0 0 0 1 0 0 0  1 412
90  0 0 0 0 0 0 0 0 0 0 0 0 1 0 0  1 413
58  0 0 1 0 0 0 0 0 0 0 0 0 0 0 0  1 414
63  0 0 0 0 1 0 0 0 0 0 0 0 0 0 0  1 415
84  0 0 0 0 0 0 0 0 0 0 1 0 0 0 0  1 416
39  0 1 0 0 0 0 0 0 0 0 0 0 0 0 0  1 417
87  0 0 0 0 0 0 0 0 0 1 0 0 0 0 0  1 418
21  0 0 0 0 0 0 1 0 0 0 0 0 0 0 0  1 419
56  0 0 0 0 0 0 0 0 0 0 0 0 0 0 1  1 420
32  0 0 0 0 0 0 0 0 1 0 0 0 0 0 0  1 421
57  1 0 0 0 0 0 0 0 0 0 0 0 0 0 0  1 677
84  0 0 0 0 0 0 0 0 0 1 0 0 0 0 0  1 423
45  0 0 0 0 0 0 0 1 0 0 0 0 0 0 0  1 424
15  0 0 0 0 0 1 0 0 0 0 0 0 0 0 0  1 425
41  0 0 0 0 0 0 0 0 0 0 0 0 0 0 1  1 426
18  0 0 0 0 0 0 0 0 0 0 1 0 0 0 0  1 427
82  0 0 0 0 1 0 0 0 0 0 0 0 0 0 0  1 428
29  0 0 0 0 0 0 0 0 0 0 0 1 0 0 0  1 429
70  0 0 1 0 0 0 0 0 0 0 0 0 0 0 0  1 430
67  0 1 0 0 0 0 0 0 0 0 0 0 0 0 0  1 431
30  0 0 0 1 0 0 0 0 0 0 0 0 0 0 0  1 432
50  0 0 0 0 0 0 0 0 0 0 0 0 0 1 0  1 433
23  0 0 0 0 0 0 1 0 0 0 0 0 0 0 0  1 434
20  1 0 0 0 0 0 0 0 0 0 0 0 0 0 0  1 435
21  0 0 0 0 0 0 0 0 0 0 0 0 1 0 0  1 436
38  0 0 0 0 0 0 0 0 1 0 0 0 0 0 0  1 677
37  0 0 0 0 0 0 0 0 0 1 0 0 0 0 0  1 438
81  0 0 0 0 0 0 0 0 0 0 1 0 0 0 0  1 439
61  0 0 0 0 0 0 0 0 0 0 0 1 0 0 0  1 440
57  0 0 0 0 0 0 0 0 0 0 0 0 0 0 1  1 441
57  0 0 0 0 0 0 0 0 1 0 0 0 0 0 0  1 442
52  1 0 0 0 0 0 0 0 0 0 0 0 0 0 0  1 443
74  0 0 0 0 0 0 0 1 0 0 0 0 0 0 0  1 444
62  0 0 0 0 0 0 1 0 0 0 0 0 0 0 0  1 445
30  0 0 0 0 0 0 0 0 0 0 0 0 1 0 0  1 446
52  0 1 0 0 0 0 0 0 0 0 0 0 0 0 0  1 447
38  0 0 1 0 0 0 0 0 0 0 0 0 0 0 0  1 448
68  0 0 0 0 0 0 0 0 0 0 0 0 0 1 0  1 449
54  0 0 0 0 1 0 0 0 0 0 0 0 0 0 0  1 450
54  0 0 0 1 0 0 0 0 0 0 0 0 0 0 0  1 451
16  0 0 0 0 0 1 0 0 0 0 0 0 0 0 0  1 677
21  0 0 0 0 1 0 0 0 0 0 0 0 0 0 0  1 453
55  0 0 0 1 0 0 0 0 0 0 0 0 0 0 0  1 454
71  0 0 0 0 0 0 1 0 0 0 0 0 0 0 0  1 455
98  0 0 0 0 0 0 0 0 0 0 0 0 0 0 1  1 456
12  0 0 0 0 0 0 0 0 0 0 1 0 0 0 0  1 457
34  0 0 1 0 0 0 0 0 0 0 0 0 0 0 0  1 458
16  0 0 0 0 0 0 0 0 0 1 0 0 0 0 0  1 459
21  0 1 0 0 0 0 0 0 0 0 0 0 0 0 0  1 460
53  1 0 0 0 0 0 0 0 0 0 0 0 0 0 0  1 461
26  0 0 0 0 0 0 0 1 0 0 0 0 0 0 0  1 462
52  0 0 0 0 0 0 0 0 1 0 0 0 0 0 0  1 463
95  0 0 0 0 0 1 0 0 0 0 0 0 0 0 0  1 464
31  0 0 0 0 0 0 0 0 0 0 0 0 1 0 0  1 465
42  0 0 0 0 0 0 0 0 0 0 0 1 0 0 0  1 466
39  0 0 0 0 0 0 0 0 0 0 0 0 0 1 0  1 677
54  0 0 0 0 0 0 0 0 0 0 0 1 0 0 0  1 468
83  0 0 0 0 1 0 0 0 0 0 0 0 0 0 0  1 469
77  0 1 0 0 0 0 0 0 0 0 0 0 0 0 0  1 470
64  0 0 0 0 0 0 0 1 0 0 0 0 0 0 0  1 471
34  0 0 0 0 0 0 0 0 1 0 0 0 0 0 0  1 472
79  0 0 0 0 0 0 0 0 0 0 0 0 0 0 1  1 473
43  0 0 0 0 0 0 0 0 0 0 0 0 1 0 0  1 474
55  1 0 0 0 0 0 0 0 0 0 0 0 0 0 0  1 475
77  0 0 0 1 0 0 0 0 0 0 0 0 0 0 0  1 476
19  0 0 0 0 0 0 1 0 0 0 0 0 0 0 0  1 477
37  0 0 0 0 0 0 0 0 0 1 0 0 0 0 0  1 478
79  0 0 0 0 0 1 0 0 0 0 0 0 0 0 0  1 479
92  0 0 0 0 0 0 0 0 0 0 1 0 0 0 0  1 480
62  0 0 0 0 0 0 0 0 0 0 0 0 0 1 0  1 481
66  0 0 1 0 0 0 0 0 0 0 0 0 0 0 0  1 677
83  0 0 0 0 0 0 0 0 0 1 0 0 0 0 0  1 483
77  0 0 0 0 0 1 0 0 0 0 0 0 0 0 0  1 484
87  0 0 1 0 0 0 0 0 0 0 0 0 0 0 0  1 485
38  0 0 0 0 0 0 0 1 0 0 0 0 0 0 0  1 486
60  0 0 0 0 1 0 0 0 0 0 0 0 0 0 0  1 487
98  0 0 0 0 0 0 0 0 0 0 0 0 1 0 0  1 488
93  1 0 0 0 0 0 0 0 0 0 0 0 0 0 0  1 489
17  0 0 0 0 0 0 0 0 0 0 0 0 0 1 0  1 490
41  0 0 0 0 0 0 1 0 0 0 0 0 0 0 0  1 491
44  0 0 0 0 0 0 0 0 0 0 1 0 0 0 0  1 492
69  0 0 0 1 0 0 0 0 0 0 0 0 0 0 0  1 493
49  0 0 0 0 0 0 0 0 0 0 0 1 0 0 0  1 494
24  0 0 0 0 0 0 0 0 1 0 0 0 0 0 0  1 495
87  0 1 0 0 0 0 0 0 0 0 0 0 0 0 0  1 496
25  0 0 0 0 0 0 0 0 0 0 0 0 0 0 1  1 677
77  0 0 0 0 0 1 0 0 0 0 0 0 0 0 0  1 498
96  1 0 0 0 0 0 0 0 0 0 0 0 0 0 0  1 499
28  0 0 0 0 0 0 0 0 0 1 0 0 0 0 0  1 500
7  0 0 0 0 0 0 1 0 0 0 0 0 0 0 0  1 501
95  0 0 0 0 1 0 0 0 0 0 0 0 0 0 0  1 502
35  0 0 0 0 0 0 0 0 0 0 0 0 0 1 0  1 503
35  0 0 0 0 0 0 0 1 0 0 0 0 0 0 0  1 504
76  0 0 0 0 0 0 0 0 1 0 0 0 0 0 0  1 505
9  0 0 0 0 0 0 0 0 0 0 0 1 0 0 0  1 506
95  0 0 0 0 0 0 0 0 0 0 0 0 1 0 0  1 507
43  0 0 1 0 0 0 0 0 0 0 0 0 0 0 0  1 508
75  0 1 0 0 0 0 0 0 0 0 0 0 0 0 0  1 509
61  0 0 0 0 0 0 0 0 0 0 1 0 0 0 0  1 510
10  0 0 0 0 0 0 0 0 0 0 0 0 0 0 1  1 511
79  0 0 0 1 0 0 0 0 0 0 0 0 0 0 0  1 677
87  0 0 0 0 0 0 0 0 0 0 1 0 0 0 0  1 513
28  0 0 0 0 1 0 0 0 0 0 0 0 0 0 0  1 514
50  0 0 0 0 0 0 0 0 1 0 0 0 0 0 0  1 515
59  0 0 1 0 0 0 0 0 0 0 0 0 0 0 0  1 516
46  1 0 0 0 0 0 0 0 0 0 0 0 0 0 0  1 517
45  0 0 0 0 0 0 0 0 0 0 0 1 0 0 0  1 518
9  0 0 0 0 0 0 0 0 0 0 0 0 0 0 1  1 519
43  0 0 0 0 0 0 0 0 0 1 0 0 0 0 0  1 520
52  0 0 0 0 0 0 1 0 0 0 0 0 0 0 0  1 521
27  0 0 0 0 0 0 0 1 0 0 0 0 0 0 0  1 522
91  0 1 0 0 0 0 0 0 0 0 0 0 0 0 0  1 523
41  0 0 0 0 0 0 0 0 0 0 0 0 0 1 0  1 524
16  0 0 0 1 0 0 0 0 0 0 0 0 0 0 0  1 525
59  0 0 0 0 0 1 0 0 0 0 0 0 0 0 0  1 526
39  0 0 0 0 0 0 0 0 0 0 0 0 1 0 0  1 677
20  1 0 0 0 0 0 0 0 0 0 0 0 0 0 0  1 528
71  0 0 1 0 0 0 0 0 0 0 0 0 0 0 0  1 529
78  0 0 0 0 1 0 0 0 0 0 0 0 0 0 0  1 530
66  0 0 0 0 0 0 0 0 0 0 0 0 0 1 0  1 531
14  0 0 0 1 0 0 0 0 0 0 0 0 0 0 0  1 532
8  0 0 0 0 0 0 0 0 0 0 0 0 1 0 0  1 533
42  0 0 0 0 0 0 0 0 0 0 0 0 0 0 1  1 534
28  0 0 0 0 0 0 1 0 0 0 0 0 0 0 0  1 535
54  0 1 0 0 0 0 0 0 0 0 0 0 0 0 0  1 536
33  0 0 0 0 0 0 0 0 0 1 0 0 0 0 0  1 537
89  0 0 0 0 0 0 0 0 0 0 0 1 0 0 0  1 538
26  0 0 0 0 0 0 0 0 1 0 0 0 0 0 0  1 539
37  0 0 0 0 0 0 0 1 0 0 0 0 0 0 0  1 540
33  0 0 0 0 0 0 0 0 0 0 1 0 0 0 0  1 541
43  0 0 0 0 0 1 0 0 0 0 0 0 0 0 0  1 677
69  0 0 0 0 0 0 0 0 1 0 0 0 0 0 0  1 543
96  0 0 0 0 1 0 0 0 0 0 0 0 0 0 0  1 544
17  0 0 0 0 0 0 0 0 0 0 0 0 1 0 0  1 545
69  1 0 0 0 0 0 0 0 0 0 0 0 0 0 0  1 546
45  0 0 0 0 0 0 0 1 0 0 0 0 0 0 0  1 547
31  0 0 0 0 0 0 0 0 0 0 0 1 0 0 0  1 548
78  0 0 0 0 0 0 1 0 0 0 0 0 0 0 0  1 549
20  0 0 0 0 0 0 0 0 0 0 1 0 0 0 0  1 550
27  0 0 0 1 0 0 0 0 0 0 0 0 0 0 0  1 551
87  0 0 0 0 0 0 0 0 0 0 0 0 0 1 0  1 552
74  0 1 0 0 0 0 0 0 0 0 0 0 0 0 0  1 553
84  0 0 0 0 0 1 0 0 0 0 0 0 0 0 0  1 554
76  0 0 0 0 0 0 0 0 0 0 0 0 0 0 1  1 555
94  0 0 1 0 0 0 0 0 0 0 0 0 0 0 0  1 556
81  0 0 0 0 0 0 0 0 0 1 0 0 0 0 0  1 677
58  0 0 0 0 1 0 0 0 0 0 0 0 0 0 0  1 558
90  0 0 0 0 0 0 0 0 0 0 0 0 0 1 0  1 559
76  0 0 0 0 0 0 0 0 0 0 0 1 0 0 0  1 560
81  0 0 0 1 0 0 0 0 0 0 0 0 0 0 0  1 561
23  0 0 0 0 0 0 0 1 0 0 0 0 0 0 0  1 562
28  0 0 0 0 0 0 0 0 0 1 0 0 0 0 0  1 563
18  0 1 0 0 0 0 0 0 0 0 0 0 0 0 0  1 564
32  0 0 1 0 0 0 0 0 0 0 0 0 0 0 0  1 565
86  0 0 0 0 0 0 0 0 0 0 0 0 1 0 0  1 566
99  0 0 0 0 0 0 0 0 1 0 0 0 0 0 0  1 567
97  0 0 0 0 0 0 0 0 0 0 0 0 0 0 1  1 568
24  1 0 0 0 0 0 0 0 0 0 0 0 0 0 0  1 569
45  0 0 0 0 0 0 0 0 0 0 1 0 0 0 0  1 570
72  0 0 0 0 0 0 1 0 0 0 0 0 0 0 0  1 571
25  0 0 0 0 0 1 0 0 0 0 0 0 0 0 0  1 677
27  0 0 0 0 0 1 0 0 0 0 0 0 0 0 0  1 573
46  0 1 0 0 0 0 0 0 0 0 0 0 0 0 0  1 574
67  0 0 0 0 0 0 1 0 0 0 0 0 0 0 0  1 575
27  0 0 0 0 0 0 0 0 1 0 0 0 0 0 0  1 576
19  0 0 0 0 0 0 0 0 0 0 0 0 0 1 0  1 577
80  0 0 0 0 0 0 0 0 0 0 1 0 0 0 0  1 578
17  0 0 1 0 0 0 0 0 0 0 0 0 0 0 0  1 579
48  0 0 0 1 0 0 0 0 0 0 0 0 0 0 0  1 580
62  0 0 0 0 0 0 0 1 0 0 0 0 0 0 0  1 581
12  0 0 0 0 0 0 0 0 0 0 0 1 0 0 0  1 582
28  0 0 0 0 0 0 0 0 0 0 0 0 0 0 1  1 583
98  0 0 0 0 1 0 0 0 0 0 0 0 0 0 0  1 584
42  1 0 0 0 0 0 0 0 0 0 0 0 0 0 0  1 585
48  0 0 0 0 0 0 0 0 0 1 0 0 0 0 0  1 586
50  0 0 0 0 0 0 0 0 0 0 0 0 1 0 0  1 677
37  0 0 0 0 0 0 0 0 0 0 0 1 0 0 0  1 588
80  0 0 0 0 0 1 0 0 0 0 0 0 0 0 0  1 589
75  0 0 0 0 1 0 0 0 0 0 0 0 0 0 0  1 590
55  0 0 0 0 0 0 0 0 1 0 0 0 0 0 0  1 591
50  0 0 0 0 0 0 0 1 0 0 0 0 0 0 0  1 592
94  1 0 0 0 0 0 0 0 0 0 0 0 0 0 0  1 593
14  0 0 0 0 0 0 0 0 0 1 0 0 0 0 0  1 594
41  0 0 0 0 0 0 1 0 0 0 0 0 0 0 0  1 595
72  0 0 0 0 0 0 0 0 0 0 0 0 0 0 1  1 596
50  0 0 0 1 0 0 0 0 0 0 0 0 0 0 0  1 597
61  0 0 0 0 0 0 0 0 0 0 1 0 0 0 0  1 598
79  0 0 0 0 0 0 0 0 0 0 0 0 0 1 0  1 599
98  0 0 1 0 0 0 0 0 0 0 0 0 0 0 0  1 600
18  0 0 0 0 0 0 0 0 0 0 0 0 1 0 0  1 601
63  0 1 0 0 0 0 0 0 0 0 0 0 0 0 0  1 677
65  0 0 0 0 0 0 0 1 0 0 0 0 0 0 0  1 603
96  0 0 0 1 0 0 0 0 0 0 0 0 0 0 0  1 604
47  1 0 0 0 0 0 0 0 0 0 0 0 0 0 0  1 605
75  0 0 0 0 1 0 0 0 0 0 0 0 0 0 0  1 606
69  0 0 0 0 0 0 0 0 0 0 0 0 1 0 0  1 607
58  0 0 0 0 0 0 0 0 0 0 0 0 0 0 1  1 608
33  0 0 0 0 0 0 0 0 0 0 1 0 0 0 0  1 609
71  0 1 0 0 0 0 0 0 0 0 0 0 0 0 0  1 610
22  0 0 0 0 0 0 0 0 0 1 0 0 0 0 0  1 611
32  0 0 0 0 0 0 0 0 0 0 0 0 0 1 0  1 612
57  0 0 0 0 0 1 0 0 0 0 0 0 0 0 0  1 613
79  0 0 0 0 0 0 0 0 1 0 0 0 0 0 0  1 614
14  0 0 1 0 0 0 0 0 0 0 0 0 0 0 0  1 615
31  0 0 0 0 0 0 0 0 0 0 0 1 0 0 0  1 616
60  0 0 0 0 0 0 1 0 0 0 0 0 0 0 0  1 677
34  0 1 0 0 0 0 0 0 0 0 0 0 0 0 0  1 618
47  0 0 1 0 0 0 0 0 0 0 0 0 0 0 0  1 619
58  0 0 0 1 0 0 0 0 0 0 0 0 0 0 0  1 620
51  0 0 0 0 0 1 0 0 0 0 0 0 0 0 0  1 621
62  0 0 0 0 1 0 0 0 0 0 0 0 0 0 0  1 622
44  0 0 0 0 0 0 1 0 0 0 0 0 0 0 0  1 623
8  0 0 0 0 0 0 0 0 0 1 0 0 0 0 0  1 624
17  0 0 0 0 0 0 0 1 0 0 0 0 0 0 0  1 625
97  0 0 0 0 0 0 0 0 0 0 1 0 0 0 0  1 626
29  0 0 0 0 0 0 0 0 1 0 0 0 0 0 0  1 627
15  0 0 0 0 0 0 0 0 0 0 0 1 0 0 0  1 628
66  0 0 0 0 0 0 0 0 0 0 0 0 0 1 0  1 629
40  0 0 0 0 0 0 0 0 0 0 0 0 1 0 0  1 630
44  1 0 0 0 0 0 0 0 0 0 0 0 0 0 0  1 631
38  0 0 0 0 0 0 0 0 0 0 0 0 0 0 1  1 677
50  0 0 0 1 0 0 0 0 0 0 0 0 0 0 0  1 633
57  0 0 0 0 0 0 0 1 0 0 0 0 0 0 0  1 634
61  0 0 0 0 0 0 0 0 0 0 0 0 0 1 0  1 635
20  0 0 0 0 0 1 0 0 0 0 0 0 0 0 0  1 636
85  0 0 0 0 0 0 0 0 0 0 0 1 0 0 0  1 637
90  0 0 0 0 0 0 0 0 0 0 0 0 1 0 0  1 638
58  0 0 1 0 0 0 0 0 0 0 0 0 0 0 0  1 639
63  0 0 0 0 1 0 0 0 0 0 0 0 0 0 0  1 640
84  0 0 0 0 0 0 0 0 0 0 1 0 0 0 0  1 641
39  0 1 0 0 0 0 0 0 0 0 0 0 0 0 0  1 642
87  0 0 0 0 0 0 0 0 0 1 0 0 0 0 0  1 643
21  0 0 0 0 0 0 1 0 0 0 0 0 0 0 0  1 644
56  0 0 0 0 0 0 0 0 0 0 0 0 0 0 1  1 645
32  0 0 0 0 0 0 0 0 1 0 0 0 0 0 0  1 646
57  1 0 0 0 0 0 0 0 0 0 0 0 0 0 0  1 677
84  0 0 0 0 0 0 0 0 0 1 0 0 0 0 0  1 648
45  0 0 0 0 0 0 0 1 0 0 0 0 0 0 0  1 649
15  0 0 0 0 0 1 0 0 0 0 0 0 0 0 0  1 650
41  0 0 0 0 0 0 0 0 0 0 0 0 0 0 1  1 651
18  0 0 0 0 0 0 0 0 0 0 1 0 0 0 0  1 652
82  0 0 0 0 1 0 0 0 0 0 0 0 0 0 0  1 653
29  0 0 0 0 0 0 0 0 0 0 0 1 0 0 0  1 654
70  0 0 1 0 0 0 0 0 0 0 0 0 0 0 0  1 655
67  0 1 0 0 0 0 0 0 0 0 0 0 0 0 0  1 656
30  0 0 0 1 0 0 0 0 0 0 0 0 0 0 0  1 657
50  0 0 0 0 0 0 0 0 0 0 0 0 0 1 0  1 658
23  0 0 0 0 0 0 1 0 0 0 0 0 0 0 0  1 659
20  1 0 0 0 0 0 0 0 0 0 0 0 0 0 0  1 660
21  0 0 0 0 0 0 0 0 0 0 0 0 1 0 0  1 661
38  0 0 0 0 0 0 0 0 1 0 0 0 0 0 0  1 677
37  0 0 0 0 0 0 0 0 0 1 0 0 0 0 0  1 663
81  0 0 0 0 0 0 0 0 0 0 1 0 0 0 0  1 664
61  0 0 0 0 0 0 0 0 0 0 0 1 0 0 0  1 665
57  0 0 0 0 0 0 0 0 0 0 0 0 0 0 1  1 666
57  0 0 0 0 0 0 0 0 1 0 0 0 0 0 0  1 667
52  1 0 0 0 0 0 0 0 0 0 0 0 0 0 0  1 668
74  0 0 0 0 0 0 0 1 0 0 0 0 0 0 0  1 669
62  0 0 0 0 0 0 1 0 0 0 0 0 0 0 0  1 670
30  0 0 0 0 0 0 0 0 0 0 0 0 1 0 0  1 671
52  0 1 0 0 0 0 0 0 0 0 0 0 0 0 0  1 672
38  0 0 1 0 0 0 0 0 0 0 0 0 0 0 0  1 673
68  0 0 0 0 0 0 0 0 0 0 0 0 0 1 0  1 674
54  0 0 0 0 1 0 0 0 0 0 0 0 0 0 0  1 675
54  0 0 0 1 0 0 0 0 0 0 0 0 0 0 0  1 676
16  0 0 0 0 0 1 0 0 0 0 0 0 0 0 0  1 677
0  0 0 0 0 0 0 0 0 0 0 0 0 0 0 0  0
